c Generated map
c Size: 15 * 15, weights in range: 1 to 10, walls: True, with ratio 0.05
c dim 4 of 4
c
p sp 225 376
c graph contains 225 nodes and 376 arcs
c
a 1 16 2
a 16 1 2
a 1 2 2
a 2 1 2
a 2 17 2
a 17 2 2
a 2 3 6
a 3 2 6
a 3 18 2
a 18 3 2
a 3 4 1
a 4 3 1
a 4 19 4
a 19 4 4
a 4 5 1
a 5 4 1
a 5 20 1
a 20 5 1
a 5 6 1
a 6 5 1
a 6 21 6
a 21 6 6
a 6 7 9
a 7 6 9
a 7 22 2
a 22 7 2
a 7 8 4
a 8 7 4
a 8 23 7
a 23 8 7
a 8 9 6
a 9 8 6
a 9 24 5
a 24 9 5
a 9 10 6
a 10 9 6
a 10 25 8
a 25 10 8
a 10 11 3
a 11 10 3
a 11 26 4
a 26 11 4
a 11 12 9
a 12 11 9
a 12 27 5
a 27 12 5
a 12 13 7
a 13 12 7
a 13 28 9
a 28 13 9
a 13 14 5
a 14 13 5
a 14 29 6
a 29 14 6
a 14 15 6
a 15 14 6
a 15 30 2
a 30 15 2
a 16 31 7
a 31 16 7
a 16 17 6
a 17 16 6
a 17 32 3
a 32 17 3
a 17 18 7
a 18 17 7
a 18 33 8
a 33 18 8
a 18 19 5
a 19 18 5
a 19 34 9
a 34 19 9
a 19 20 2
a 20 19 2
a 20 35 2
a 35 20 2
a 20 21 8
a 21 20 8
a 21 36 4
a 36 21 4
a 21 22 10
a 22 21 10
a 22 37 1
a 37 22 1
a 22 23 2
a 23 22 2
a 23 38 6
a 38 23 6
a 23 24 7
a 24 23 7
a 24 39 3
a 39 24 3
a 24 25 9
a 25 24 9
a 25 40 1
a 40 25 1
a 25 26 1
a 26 25 1
a 26 27 2
a 27 26 2
a 27 42 1
a 42 27 1
a 27 28 7
a 28 27 7
a 28 43 6
a 43 28 6
a 28 29 8
a 29 28 8
a 29 44 2
a 44 29 2
a 29 30 3
a 30 29 3
a 30 45 2
a 45 30 2
a 31 46 6
a 46 31 6
a 31 32 3
a 32 31 3
a 32 47 8
a 47 32 8
a 32 33 10
a 33 32 10
a 33 48 9
a 48 33 9
a 33 34 4
a 34 33 4
a 34 49 7
a 49 34 7
a 34 35 4
a 35 34 4
a 35 50 4
a 50 35 4
a 35 36 8
a 36 35 8
a 36 51 7
a 51 36 7
a 36 37 4
a 37 36 4
a 37 52 10
a 52 37 10
a 37 38 2
a 38 37 2
a 38 53 8
a 53 38 8
a 38 39 5
a 39 38 5
a 39 40 10
a 40 39 10
a 40 55 3
a 55 40 3
a 42 57 10
a 57 42 10
a 42 43 8
a 43 42 8
a 43 58 8
a 58 43 8
a 43 44 8
a 44 43 8
a 44 59 1
a 59 44 1
a 44 45 2
a 45 44 2
a 45 60 10
a 60 45 10
a 46 61 9
a 61 46 9
a 46 47 8
a 47 46 8
a 47 62 4
a 62 47 4
a 47 48 10
a 48 47 10
a 48 63 8
a 63 48 8
a 48 49 7
a 49 48 7
a 49 64 9
a 64 49 9
a 49 50 7
a 50 49 7
a 50 65 7
a 65 50 7
a 50 51 9
a 51 50 9
a 51 66 10
a 66 51 10
a 51 52 10
a 52 51 10
a 52 67 7
a 67 52 7
a 52 53 7
a 53 52 7
a 53 68 9
a 68 53 9
a 55 70 4
a 70 55 4
a 55 56 8
a 56 55 8
a 56 71 10
a 71 56 10
a 56 57 1
a 57 56 1
a 57 72 5
a 72 57 5
a 57 58 2
a 58 57 2
a 58 73 8
a 73 58 8
a 58 59 2
a 59 58 2
a 59 74 6
a 74 59 6
a 59 60 10
a 60 59 10
a 60 75 9
a 75 60 9
a 61 76 10
a 76 61 10
a 61 62 8
a 62 61 8
a 62 77 4
a 77 62 4
a 62 63 8
a 63 62 8
a 63 78 9
a 78 63 9
a 63 64 4
a 64 63 4
a 64 65 5
a 65 64 5
a 65 80 6
a 80 65 6
a 65 66 7
a 66 65 7
a 66 81 2
a 81 66 2
a 66 67 5
a 67 66 5
a 67 82 6
a 82 67 6
a 67 68 4
a 68 67 4
a 68 83 8
a 83 68 8
a 68 69 8
a 69 68 8
a 69 84 8
a 84 69 8
a 69 70 7
a 70 69 7
a 70 85 10
a 85 70 10
a 70 71 6
a 71 70 6
a 71 86 6
a 86 71 6
a 71 72 6
a 72 71 6
a 72 87 9
a 87 72 9
a 72 73 1
a 73 72 1
a 73 88 3
a 88 73 3
a 73 74 3
a 74 73 3
a 74 89 2
a 89 74 2
a 74 75 3
a 75 74 3
a 75 90 1
a 90 75 1
a 76 91 2
a 91 76 2
a 76 77 2
a 77 76 2
a 77 92 8
a 92 77 8
a 77 78 8
a 78 77 8
a 78 93 8
a 93 78 8
a 80 95 10
a 95 80 10
a 80 81 9
a 81 80 9
a 81 82 4
a 82 81 4
a 82 97 4
a 97 82 4
a 82 83 8
a 83 82 8
a 83 98 3
a 98 83 3
a 83 84 4
a 84 83 4
a 84 99 9
a 99 84 9
a 84 85 7
a 85 84 7
a 85 86 6
a 86 85 6
a 86 101 10
a 101 86 10
a 86 87 7
a 87 86 7
a 87 102 4
a 102 87 4
a 87 88 4
a 88 87 4
a 88 103 3
a 103 88 3
a 88 89 2
a 89 88 2
a 89 104 2
a 104 89 2
a 89 90 1
a 90 89 1
a 90 105 7
a 105 90 7
a 91 106 10
a 106 91 10
a 91 92 1
a 92 91 1
a 92 93 1
a 93 92 1
a 93 108 7
a 108 93 7
a 93 94 10
a 94 93 10
a 94 109 4
a 109 94 4
a 94 95 3
a 95 94 3
a 95 110 10
a 110 95 10
a 97 112 5
a 112 97 5
a 97 98 6
a 98 97 6
a 98 113 10
a 113 98 10
a 98 99 10
a 99 98 10
a 99 114 2
a 114 99 2
a 101 116 10
a 116 101 10
a 101 102 4
a 102 101 4
a 102 117 6
a 117 102 6
a 102 103 7
a 103 102 7
a 103 118 5
a 118 103 5
a 103 104 1
a 104 103 1
a 104 119 9
a 119 104 9
a 104 105 10
a 105 104 10
a 105 120 9
a 120 105 9
a 106 121 8
a 121 106 8
a 108 123 7
a 123 108 7
a 108 109 10
a 109 108 10
a 109 124 9
a 124 109 9
a 109 110 4
a 110 109 4
a 110 125 1
a 125 110 1
a 110 111 2
a 111 110 2
a 111 126 10
a 126 111 10
a 111 112 3
a 112 111 3
a 112 127 7
a 127 112 7
a 112 113 5
a 113 112 5
a 113 128 8
a 128 113 8
a 113 114 7
a 114 113 7
a 114 129 5
a 129 114 5
a 114 115 1
a 115 114 1
a 115 130 7
a 130 115 7
a 115 116 2
a 116 115 2
a 116 131 9
a 131 116 9
a 116 117 8
a 117 116 8
a 117 132 1
a 132 117 1
a 117 118 5
a 118 117 5
a 118 133 4
a 133 118 4
a 118 119 2
a 119 118 2
a 119 134 6
a 134 119 6
a 119 120 1
a 120 119 1
a 120 135 5
a 135 120 5
a 121 136 4
a 136 121 4
a 121 122 5
a 122 121 5
a 122 137 8
a 137 122 8
a 122 123 5
a 123 122 5
a 123 138 3
a 138 123 3
a 123 124 5
a 124 123 5
a 124 139 1
a 139 124 1
a 124 125 7
a 125 124 7
a 125 140 7
a 140 125 7
a 125 126 2
a 126 125 2
a 126 141 7
a 141 126 7
a 126 127 8
a 127 126 8
a 127 142 5
a 142 127 5
a 127 128 3
a 128 127 3
a 128 143 7
a 143 128 7
a 128 129 10
a 129 128 10
a 129 144 2
a 144 129 2
a 129 130 8
a 130 129 8
a 130 145 10
a 145 130 10
a 130 131 9
a 131 130 9
a 131 146 1
a 146 131 1
a 131 132 8
a 132 131 8
a 132 147 7
a 147 132 7
a 132 133 1
a 133 132 1
a 133 148 5
a 148 133 5
a 133 134 5
a 134 133 5
a 134 149 9
a 149 134 9
a 134 135 9
a 135 134 9
a 135 150 6
a 150 135 6
a 136 151 10
a 151 136 10
a 136 137 2
a 137 136 2
a 137 152 5
a 152 137 5
a 137 138 10
a 138 137 10
a 138 153 9
a 153 138 9
a 138 139 2
a 139 138 2
a 139 154 4
a 154 139 4
a 139 140 3
a 140 139 3
a 140 155 1
a 155 140 1
a 140 141 7
a 141 140 7
a 141 156 3
a 156 141 3
a 141 142 8
a 142 141 8
a 142 157 5
a 157 142 5
a 142 143 5
a 143 142 5
a 143 158 5
a 158 143 5
a 143 144 6
a 144 143 6
a 144 159 6
a 159 144 6
a 144 145 7
a 145 144 7
a 145 160 7
a 160 145 7
a 145 146 6
a 146 145 6
a 146 161 5
a 161 146 5
a 146 147 9
a 147 146 9
a 147 162 8
a 162 147 8
a 147 148 6
a 148 147 6
a 148 149 2
a 149 148 2
a 149 164 1
a 164 149 1
a 149 150 1
a 150 149 1
a 150 165 4
a 165 150 4
a 151 166 8
a 166 151 8
a 151 152 6
a 152 151 6
a 152 167 3
a 167 152 3
a 152 153 3
a 153 152 3
a 153 168 7
a 168 153 7
a 153 154 5
a 154 153 5
a 154 169 6
a 169 154 6
a 154 155 7
a 155 154 7
a 155 170 6
a 170 155 6
a 155 156 6
a 156 155 6
a 156 171 9
a 171 156 9
a 156 157 6
a 157 156 6
a 157 172 10
a 172 157 10
a 157 158 8
a 158 157 8
a 158 173 3
a 173 158 3
a 158 159 8
a 159 158 8
a 159 174 2
a 174 159 2
a 159 160 5
a 160 159 5
a 160 175 8
a 175 160 8
a 160 161 1
a 161 160 1
a 161 176 3
a 176 161 3
a 161 162 7
a 162 161 7
a 162 177 2
a 177 162 2
a 164 179 3
a 179 164 3
a 164 165 10
a 165 164 10
a 165 180 1
a 180 165 1
a 166 181 1
a 181 166 1
a 166 167 8
a 167 166 8
a 167 168 8
a 168 167 8
a 168 183 3
a 183 168 3
a 168 169 2
a 169 168 2
a 169 170 8
a 170 169 8
a 170 185 7
a 185 170 7
a 170 171 5
a 171 170 5
a 171 186 4
a 186 171 4
a 171 172 2
a 172 171 2
a 172 187 3
a 187 172 3
a 172 173 5
a 173 172 5
a 173 188 5
a 188 173 5
a 173 174 6
a 174 173 6
a 174 189 2
a 189 174 2
a 174 175 10
a 175 174 10
a 175 190 10
a 190 175 10
a 175 176 6
a 176 175 6
a 176 191 9
a 191 176 9
a 176 177 6
a 177 176 6
a 177 192 2
a 192 177 2
a 177 178 7
a 178 177 7
a 178 193 3
a 193 178 3
a 178 179 6
a 179 178 6
a 179 180 6
a 180 179 6
a 180 195 2
a 195 180 2
a 181 196 5
a 196 181 5
a 183 198 1
a 198 183 1
a 185 200 6
a 200 185 6
a 185 186 7
a 186 185 7
a 186 201 5
a 201 186 5
a 186 187 7
a 187 186 7
a 187 202 10
a 202 187 10
a 187 188 7
a 188 187 7
a 188 203 2
a 203 188 2
a 188 189 1
a 189 188 1
a 189 204 1
a 204 189 1
a 189 190 6
a 190 189 6
a 190 205 8
a 205 190 8
a 190 191 4
a 191 190 4
a 191 206 7
a 206 191 7
a 191 192 9
a 192 191 9
a 192 193 3
a 193 192 3
a 193 208 10
a 208 193 10
a 195 210 9
a 210 195 9
a 196 211 10
a 211 196 10
a 196 197 3
a 197 196 3
a 197 212 5
a 212 197 5
a 197 198 8
a 198 197 8
a 198 213 4
a 213 198 4
a 198 199 9
a 199 198 9
a 199 214 5
a 214 199 5
a 199 200 6
a 200 199 6
a 200 215 6
a 215 200 6
a 200 201 5
a 201 200 5
a 201 216 4
a 216 201 4
a 201 202 1
a 202 201 1
a 202 217 8
a 217 202 8
a 202 203 8
a 203 202 8
a 203 218 2
a 218 203 2
a 203 204 8
a 204 203 8
a 204 219 7
a 219 204 7
a 204 205 2
a 205 204 2
a 205 220 7
a 220 205 7
a 205 206 3
a 206 205 3
a 206 221 9
a 221 206 9
a 208 223 3
a 223 208 3
a 208 209 7
a 209 208 7
a 209 224 3
a 224 209 3
a 209 210 1
a 210 209 1
a 210 225 4
a 225 210 4
a 211 212 4
a 212 211 4
a 212 213 8
a 213 212 8
a 213 214 7
a 214 213 7
a 214 215 4
a 215 214 4
a 215 216 2
a 216 215 2
a 216 217 7
a 217 216 7
a 217 218 4
a 218 217 4
a 218 219 8
a 219 218 8
a 219 220 5
a 220 219 5
a 220 221 8
a 221 220 8
a 221 222 5
a 222 221 5
a 222 223 1
a 223 222 1
a 223 224 1
a 224 223 1
a 224 225 1
a 225 224 1
